p tw 288 1024
1 33
2 34
3 35
4 36
5 37
6 38
7 39
8 40
9 41
10 42
11 43
12 44
13 45
14 46
15 47
16 48
17 49
18 50
19 51
20 52
21 53
22 54
23 55
24 56
25 57
26 58
27 59
28 60
29 61
30 62
31 63
32 64
33 83
33 122
33 133
33 158
33 160
34 89
34 92
34 93
34 94
34 95
35 80
35 112
35 115
35 116
35 117
36 82
36 124
36 138
36 141
36 142
37 70
37 85
37 86
37 87
37 88
38 86
38 102
38 132
38 133
38 134
39 96
39 100
39 101
39 102
39 103
40 92
40 97
40 112
40 113
40 114
41 77
41 115
41 126
41 127
41 128
42 80
42 81
42 82
42 83
42 84
43 98
43 113
43 118
43 119
43 120
44 75
44 76
44 77
44 78
44 79
45 106
45 132
45 135
45 136
45 137
46 66
46 104
46 109
46 110
46 111
47 71
47 85
47 94
47 129
47 131
48 68
48 119
48 127
48 156
48 157
49 65
49 66
49 67
49 68
49 69
50 93
50 100
50 121
50 122
50 123
51 126
51 141
51 146
51 152
51 155
52 76
52 96
52 97
52 98
52 99
53 139
53 149
53 152
53 153
53 154
54 78
54 90
54 107
54 148
54 151
55 143
55 145
55 148
55 149
55 150
56 67
56 73
56 87
56 143
56 144
57 104
57 105
57 106
57 107
57 108
58 72
58 135
58 138
58 139
58 140
59 70
59 71
59 72
59 73
59 74
60 65
60 75
60 89
60 90
60 91
61 101
61 109
61 116
61 129
61 130
62 110
62 118
62 145
62 146
62 147
63 136
63 153
63 156
63 158
63 159
64 81
64 105
64 121
64 124
64 125
65 66
65 67
65 68
65 69
65 75
65 89
65 90
65 91
66 67
66 68
66 69
66 104
66 109
66 110
66 111
67 68
67 69
67 73
67 87
67 143
67 144
68 69
68 119
68 127
68 156
68 157
69 161
69 162
69 163
69 164
69 165
70 71
70 72
70 73
70 74
70 85
70 86
70 87
70 88
71 72
71 73
71 74
71 85
71 94
71 129
71 131
72 73
72 74
72 135
72 138
72 139
72 140
73 74
73 87
73 143
73 144
74 166
74 167
74 168
74 169
74 170
75 76
75 77
75 78
75 79
75 89
75 90
75 91
76 77
76 78
76 79
76 96
76 97
76 98
76 99
77 78
77 79
77 115
77 126
77 127
77 128
78 79
78 90
78 107
78 148
78 151
79 171
79 172
79 173
79 174
79 175
80 81
80 82
80 83
80 84
80 112
80 115
80 116
80 117
81 82
81 83
81 84
81 105
81 121
81 124
81 125
82 83
82 84
82 124
82 138
82 141
82 142
83 84
83 122
83 133
83 158
83 160
84 176
84 177
84 178
84 179
84 180
85 86
85 87
85 88
85 94
85 129
85 131
86 87
86 88
86 102
86 132
86 133
86 134
87 88
87 143
87 144
88 166
88 181
88 182
88 183
88 184
89 90
89 91
89 92
89 93
89 94
89 95
90 91
90 107
90 148
90 151
91 161
91 171
91 185
91 186
91 187
92 93
92 94
92 95
92 97
92 112
92 113
92 114
93 94
93 95
93 100
93 121
93 122
93 123
94 95
94 129
94 131
95 185
95 188
95 189
95 190
95 191
96 97
96 98
96 99
96 100
96 101
96 102
96 103
97 98
97 99
97 112
97 113
97 114
98 99
98 113
98 118
98 119
98 120
99 172
99 192
99 193
99 194
99 195
100 101
100 102
100 103
100 121
100 122
100 123
101 102
101 103
101 109
101 116
101 129
101 130
102 103
102 132
102 133
102 134
103 192
103 196
103 197
103 198
103 199
104 105
104 106
104 107
104 108
104 109
104 110
104 111
105 106
105 107
105 108
105 121
105 124
105 125
106 107
106 108
106 132
106 135
106 136
106 137
107 108
107 148
107 151
108 200
108 201
108 202
108 203
108 204
109 110
109 111
109 116
109 129
109 130
110 111
110 118
110 145
110 146
110 147
111 162
111 200
111 205
111 206
111 207
112 113
112 114
112 115
112 116
112 117
113 114
113 118
113 119
113 120
114 188
114 193
114 208
114 209
114 210
115 116
115 117
115 126
115 127
115 128
116 117
116 129
116 130
117 176
117 208
117 211
117 212
117 213
118 119
118 120
118 145
118 146
118 147
119 120
119 127
119 156
119 157
120 194
120 209
120 214
120 215
120 216
121 122
121 123
121 124
121 125
122 123
122 133
122 158
122 160
123 189
123 196
123 217
123 218
123 219
124 125
124 138
124 141
124 142
125 177
125 201
125 217
125 220
125 221
126 127
126 128
126 141
126 146
126 152
126 155
127 128
127 156
127 157
128 173
128 211
128 222
128 223
128 224
129 130
129 131
130 197
130 205
130 212
130 225
130 226
131 167
131 181
131 190
131 225
131 227
132 133
132 134
132 135
132 136
132 137
133 134
133 158
133 160
134 182
134 198
134 228
134 229
134 230
135 136
135 137
135 138
135 139
135 140
136 137
136 153
136 156
136 158
136 159
137 202
137 228
137 231
137 232
137 233
138 139
138 140
138 141
138 142
139 140
139 149
139 152
139 153
139 154
140 168
140 231
140 234
140 235
140 236
141 142
141 146
141 152
141 155
142 178
142 220
142 234
142 237
142 238
143 144
143 145
143 148
143 149
143 150
144 163
144 169
144 183
144 239
144 240
145 146
145 147
145 148
145 149
145 150
146 147
146 152
146 155
147 206
147 214
147 241
147 242
147 243
148 149
148 150
148 151
149 150
149 152
149 153
149 154
150 239
150 241
150 244
150 245
150 246
151 174
151 186
151 203
151 244
151 247
152 153
152 154
152 155
153 154
153 156
153 158
153 159
154 235
154 245
154 248
154 249
154 250
155 222
155 237
155 242
155 248
155 251
156 157
156 158
156 159
157 164
157 215
157 223
157 252
157 253
158 159
158 160
159 232
159 249
159 252
159 254
159 255
160 179
160 218
160 229
160 254
160 256
161 162
161 163
161 164
161 165
161 171
161 185
161 186
161 187
162 163
162 164
162 165
162 200
162 205
162 206
162 207
163 164
163 165
163 169
163 183
163 239
163 240
164 165
164 215
164 223
164 252
164 253
165 272
166 167
166 168
166 169
166 170
166 181
166 182
166 183
166 184
167 168
167 169
167 170
167 181
167 190
167 225
167 227
168 169
168 170
168 231
168 234
168 235
168 236
169 170
169 183
169 239
169 240
170 262
171 172
171 173
171 174
171 175
171 185
171 186
171 187
172 173
172 174
172 175
172 192
172 193
172 194
172 195
173 174
173 175
173 211
173 222
173 223
173 224
174 175
174 186
174 203
174 244
174 247
175 277
176 177
176 178
176 179
176 180
176 208
176 211
176 212
176 213
177 178
177 179
177 180
177 201
177 217
177 220
177 221
178 179
178 180
178 220
178 234
178 237
178 238
179 180
179 218
179 229
179 254
179 256
180 279
181 182
181 183
181 184
181 190
181 225
181 227
182 183
182 184
182 198
182 228
182 229
182 230
183 184
183 239
183 240
184 284
185 186
185 187
185 188
185 189
185 190
185 191
186 187
186 203
186 244
186 247
187 261
188 189
188 190
188 191
188 193
188 208
188 209
188 210
189 190
189 191
189 196
189 217
189 218
189 219
190 191
190 225
190 227
191 287
192 193
192 194
192 195
192 196
192 197
192 198
192 199
193 194
193 195
193 208
193 209
193 210
194 195
194 209
194 214
194 215
194 216
195 269
196 197
196 198
196 199
196 217
196 218
196 219
197 198
197 199
197 205
197 212
197 225
197 226
198 199
198 228
198 229
198 230
199 282
200 201
200 202
200 203
200 204
200 205
200 206
200 207
201 202
201 203
201 204
201 217
201 220
201 221
202 203
202 204
202 228
202 231
202 232
202 233
203 204
203 244
203 247
204 264
205 206
205 207
205 212
205 225
205 226
206 207
206 214
206 241
206 242
206 243
207 275
208 209
208 210
208 211
208 212
208 213
209 210
209 214
209 215
209 216
210 281
211 212
211 213
211 222
211 223
211 224
212 213
212 225
212 226
213 286
214 215
214 216
214 241
214 242
214 243
215 216
215 223
215 252
215 253
216 278
217 218
217 219
217 220
217 221
218 219
218 229
218 254
218 256
219 271
220 221
220 234
220 237
220 238
221 257
222 223
222 224
222 237
222 242
222 248
222 251
223 224
223 252
223 253
224 280
225 226
225 227
226 260
227 274
228 229
228 230
228 231
228 232
228 233
229 230
229 254
229 256
230 283
231 232
231 233
231 234
231 235
231 236
232 233
232 249
232 252
232 254
232 255
233 276
234 235
234 236
234 237
234 238
235 236
235 245
235 248
235 249
235 250
236 263
237 238
237 242
237 248
237 251
238 285
239 240
239 241
239 244
239 245
239 246
240 265
241 242
241 243
241 244
241 245
241 246
242 243
242 248
242 251
243 259
244 245
244 246
244 247
245 246
245 248
245 249
245 250
246 266
247 267
248 249
248 250
248 251
249 250
249 252
249 254
249 255
250 268
251 270
252 253
252 254
252 255
253 273
254 255
254 256
255 258
256 288
